NAME: .\SDVRP instances\p02\p02_7090
BEST_KNOWN: 0
COMMENT: 0
DIMENSION: 76
CAPACITY: 140
EDGE_WEIGHT_FORMAT: FUNCTION
EDGE_WEIGHT_TYPE: EXACT_2D
NODE_COORD_SECTION
1 0 0
2 -18 -18
3 -4 -14
4 -19 5
5 5 -5
6 15 -20
7 -7 -6
8 10 10
9 15 5
10 -14 19
11 0 26
12 15 25
13 -5 11
14 22 -5
15 22 17
16 22 -16
17 -19 -4
18 -7 4
19 -31 16
20 22 8
21 26 -26
22 4 -27
23 -14 -27
24 -29 -12
25 -33 3
26 -23 24
27 1 6
28 15 -6
29 -5 -24
30 12 -14
31 3 -14
32 -9 36
33 -18 13
34 -14 -11
35 10 0
36 15 10
37 14 -30
38 20 -25
39 7 26
40 -10 20
41 -10 10
42 -28 -23
43 -25 -26
44 -24 -21
45 -19 8
46 10 -10
47 11 2
48 10 -25
49 8 -19
50 -28 -2
51 -25 16
52 -11 -1
53 14 -2
54 15 17
55 27 1
56 -30 30
57 -34 -15
58 25 -13
59 0 20
60 30 24
61 24 -36
62 -4 -34
63 -10 -20
64 -20 -10
65 -25 -35
66 10 30
67 17 32
68 5 2
69 -2 -7
70 10 -36
71 26 -32
72 19 -35
73 -5 20
74 -13 -16
75 0 -20
76 0 -3
DEMAND_SECTION
1 0
2 121
3 109
4 104
5 113
6 123
7 122
8 111
9 101
10 103
11 98
12 120
13 109
14 111
15 112
16 117
17 106
18 100
19 112
20 121
21 113
22 100
23 115
24 116
25 114
26 120
27 118
28 98
29 119
30 102
31 100
32 121
33 120
34 121
35 104
36 121
37 111
38 119
39 111
40 111
41 121
42 103
43 99
44 115
45 116
46 122
47 105
48 111
49 110
50 121
51 115
52 116
53 116
54 100
55 123
56 118
57 118
58 106
59 117
60 109
61 107
62 122
63 105
64 106
65 106
66 107
67 111
68 121
69 100
70 125
71 122
72 124
73 123
74 121
75 125
76 99
DEPOT_SECTION
1
-1
EOF
